% seed = 6829435

mint = 36;
% maxt = 87;

nActs = 22;
dur = [0,7,3,1,2,1,4,10,2,2,8,3,5,3,2,3,5,10,5,5,6,0];

nSkills = 4;
sreq = [| 0,0,0,0,
	| 1,2,0,1,
	| 0,2,1,1,
	| 2,2,2,0,
	| 1,0,2,2,
	| 1,2,0,1,
	| 3,0,2,3,
	| 2,0,1,2,
	| 3,3,0,3,
	| 1,0,1,3,
	| 0,3,3,2,
	| 0,3,2,3,
	| 3,0,1,2,
	| 2,3,0,2,
	| 2,0,1,1,
	| 0,1,3,1,
	| 1,1,3,0,
	| 0,3,1,3,
	| 0,3,2,1,
	| 3,0,3,1,
	| 0,3,1,3,
	| 0,0,0,0, |];

nResources = 20;
mastery = [| true,false,true,false,
	| false,false,true,false,
	| true,true,false,false,
	| true,true,false,true,
	| true,true,false,true,
	| true,true,true,false,
	| false,false,true,false,
	| false,true,true,false,
	| false,false,false,true,
	| true,false,true,false,
	| true,true,false,false,
	| false,true,false,false,
	| false,true,false,false,
	| true,true,false,false,
	| false,true,false,false,
	| true,false,true,false,
	| false,false,false,true,
	| true,true,true,false,
	| false,true,true,true,
	| false,false,false,true, |];

nPrecs = 43;
pred = [1,1,1,2,2,2,3,3,3,4,4,4,5,5,5,6,6,6,7,7,7,8,8,8,9,9,10,11,11,11,12,13,13,14,14,15,16,17,17,18,19,20,21];
succ = [2,3,4,9,6,8,16,12,8,12,5,7,10,11,15,17,10,12,17,9,14,18,20,10,11,13,21,19,20,16,20,15,16,21,15,19,18,18,19,21,22,22,22];

nUnrels = 94;
unpred = [2,2,2,2,2,3,3,3,3,3,3,3,3,3,3,3,4,4,5,5,5,5,5,5,5,5,6,6,6,6,6,6,6,6,7,7,7,8,8,8,8,8,8,8,8,8,9,9,9,9,10,10,10,10,10,10,10,10,10,10,11,11,11,11,11,12,12,12,12,12,12,12,12,13,13,13,14,14,14,14,15,15,15,15,15,16,16,16,17,18,18,19,19,20];
unsucc = [3,4,5,7,14,4,5,6,7,9,11,13,14,15,17,19,6,8,6,7,8,9,12,13,14,17,7,8,9,11,13,14,15,16,8,10,12,9,11,12,13,14,15,16,17,19,10,12,14,17,11,12,13,14,15,16,17,18,19,20,12,13,14,15,17,13,14,15,16,17,18,19,21,14,17,20,16,17,18,20,16,17,18,20,21,17,19,20,20,19,20,20,21,21];

USEFUL_RES = [{},
	{1,3,4,5,6,8,9,10,11,12,13,14,15,16,17,18,19,20},
	{1,2,3,4,5,6,7,8,9,10,11,12,13,14,15,16,17,18,19,20},
	{1,2,3,4,5,6,7,8,10,11,12,13,14,15,16,18,19},
	{1,2,3,4,5,6,7,8,9,10,11,14,16,17,18,19,20},
	{1,3,4,5,6,8,9,10,11,12,13,14,15,16,17,18,19,20},
	{1,2,3,4,5,6,7,8,9,10,11,14,16,17,18,19,20},
	{1,2,3,4,5,6,7,8,9,10,11,14,16,17,18,19,20},
	{1,3,4,5,6,8,9,10,11,12,13,14,15,16,17,18,19,20},
	{1,2,3,4,5,6,7,8,9,10,11,14,16,17,18,19,20},
	{1,2,3,4,5,6,7,8,9,10,11,12,13,14,15,16,17,18,19,20},
	{1,2,3,4,5,6,7,8,9,10,11,12,13,14,15,16,17,18,19,20},
	{1,2,3,4,5,6,7,8,9,10,11,14,16,17,18,19,20},
	{1,3,4,5,6,8,9,10,11,12,13,14,15,16,17,18,19,20},
	{1,2,3,4,5,6,7,8,9,10,11,14,16,17,18,19,20},
	{1,2,3,4,5,6,7,8,9,10,11,12,13,14,15,16,17,18,19,20},
	{1,2,3,4,5,6,7,8,10,11,12,13,14,15,16,18,19},
	{1,2,3,4,5,6,7,8,9,10,11,12,13,14,15,16,17,18,19,20},
	{1,2,3,4,5,6,7,8,9,10,11,12,13,14,15,16,17,18,19,20},
	{1,2,3,4,5,6,7,8,9,10,11,14,16,17,18,19,20},
	{1,2,3,4,5,6,7,8,9,10,11,12,13,14,15,16,17,18,19,20},
	{}];

POTENTIAL_ACT = [{2,3,4,5,6,7,8,9,10,11,12,13,14,15,16,17,18,19,20,21},
	{3,4,5,7,8,10,11,12,13,15,16,17,18,19,20,21},
	{2,3,4,5,6,7,8,9,10,11,12,13,14,15,16,17,18,19,20,21},
	{2,3,4,5,6,7,8,9,10,11,12,13,14,15,16,17,18,19,20,21},
	{2,3,4,5,6,7,8,9,10,11,12,13,14,15,16,17,18,19,20,21},
	{2,3,4,5,6,7,8,9,10,11,12,13,14,15,16,17,18,19,20,21},
	{3,4,5,7,8,10,11,12,13,15,16,17,18,19,20,21},
	{2,3,4,5,6,7,8,9,10,11,12,13,14,15,16,17,18,19,20,21},
	{2,3,5,6,7,8,9,10,11,12,13,14,15,16,18,19,20,21},
	{2,3,4,5,6,7,8,9,10,11,12,13,14,15,16,17,18,19,20,21},
	{2,3,4,5,6,7,8,9,10,11,12,13,14,15,16,17,18,19,20,21},
	{2,3,4,6,9,11,12,14,16,17,18,19,21},
	{2,3,4,6,9,11,12,14,16,17,18,19,21},
	{2,3,4,5,6,7,8,9,10,11,12,13,14,15,16,17,18,19,20,21},
	{2,3,4,6,9,11,12,14,16,17,18,19,21},
	{2,3,4,5,6,7,8,9,10,11,12,13,14,15,16,17,18,19,20,21},
	{2,3,5,6,7,8,9,10,11,12,13,14,15,16,18,19,20,21},
	{2,3,4,5,6,7,8,9,10,11,12,13,14,15,16,17,18,19,20,21},
	{2,3,4,5,6,7,8,9,10,11,12,13,14,15,16,17,18,19,20,21},
	{2,3,5,6,7,8,9,10,11,12,13,14,15,16,18,19,20,21}];
